
******************************************************************************
This program contains Ipopt, a library for large-scale nonlinear optimization.
 Ipopt is released as open source code under the Eclipse Public License (EPL).
         For more information visit http://projects.coin-or.org/Ipopt

This version of Ipopt was compiled from source code available at
    https://github.com/IDAES/Ipopt as part of the Institute for the Design of
    Advanced Energy Systems Process Systems Engineering Framework (IDAES PSE
    Framework) Copyright (c) 2018-2019. See https://github.com/IDAES/idaes-pse.

This version of Ipopt was compiled using HSL, a collection of Fortran codes
    for large-scale scientific computation.  All technical papers, sales and
    publicity material resulting from use of the HSL codes within IPOPT must
    contain the following acknowledgement:
        HSL, a collection of Fortran codes for large-scale scientific
        computation. See http://www.hsl.rl.ac.uk.
******************************************************************************

This is Ipopt version 3.13.2, running with linear solver ma27.

Number of nonzeros in equality constraint Jacobian...:      958
Number of nonzeros in inequality constraint Jacobian.:        0
Number of nonzeros in Lagrangian Hessian.............:      832

Total number of variables............................:      416
                     variables with only lower bounds:      128
                variables with lower and upper bounds:      224
                     variables with only upper bounds:        0
Total number of equality constraints.................:      415
Total number of inequality constraints...............:        0
        inequality constraints with only lower bounds:        0
   inequality constraints with lower and upper bounds:        0
        inequality constraints with only upper bounds:        0

iter    objective    inf_pr   inf_du lg(mu)  ||d||  lg(rg) alpha_du alpha_pr  ls
   0  0.0000000e+00 2.09e-01 4.44e-16  -1.0 0.00e+00    -  0.00e+00 0.00e+00   0
   1  2.9677650e-01 2.06e-01 9.45e+04  -1.0 3.45e+06    -  4.45e-02 1.45e-02f  5
   2  6.8589390e-01 2.05e-01 1.24e+05  -1.0 4.03e+06    -  1.55e-01 7.28e-03h  6
   3  8.7291895e-01 2.04e-01 1.25e+05  -1.0 5.28e+06    -  7.33e-02 2.47e-03h  8
   4  1.3508648e+00 2.03e-01 2.16e+06  -1.0 3.87e+06  -4.0 1.68e-01 6.32e-03h  6
   5  1.3639161e+00 2.03e-01 2.16e+06  -1.0 4.07e+06  -3.6 8.94e-02 1.85e-04h 11
   6  1.3653134e+00 2.03e-01 2.16e+06  -1.0 5.28e+06  -3.1 3.59e-01 3.63e-05h 13
   7  1.3639227e+00 2.03e-01 2.16e+06  -1.0 1.09e+07  -3.6 7.26e-02 3.46e-05h 12
   8  1.3615776e+00 2.03e-01 2.16e+06  -1.0 1.51e+07  -4.1 1.47e-01 2.58e-05h 12
   9  1.3546711e+00 2.03e-01 2.16e+06  -1.0 1.18e+07  -4.6 1.05e-01 1.30e-04h 10
iter    objective    inf_pr   inf_du lg(mu)  ||d||  lg(rg) alpha_du alpha_pr  ls
  10  4.8760982e+01 1.84e-01 1.89e+08  -1.0 6.16e+06    -  1.17e-01 1.23e-01h  3
  11  6.7920797e+02 2.02e+01 2.95e+09  -1.0 1.27e+07    -  1.18e-01 2.90e-01w  1
  12  7.3621852e+02 1.92e+01 2.81e+09  -1.0 4.76e+06    -  4.30e-01 5.11e-02w  1
  13  7.3656976e+02 1.92e+01 2.81e+09  -1.0 5.98e+06    -  4.21e-01 2.60e-04w  1
  14  5.7844483e+01 1.81e-01 1.82e+08  -1.0 3.67e+06    -  1.18e-01 1.81e-02h  4
  15  5.7774281e+01 1.81e-01 1.82e+08  -1.0 3.33e+06    -  4.70e-01 8.09e-04f  9
  16  5.1349320e+01 1.80e-01 1.81e+08  -1.0 6.42e+07  -4.2 5.00e-02 1.87e-03f  5
  17r 5.1349320e+01 1.80e-01 9.99e+02  -0.7 0.00e+00  -4.6 0.00e+00 3.68e-07R 14
  18r 5.1349521e+01 1.74e-01 9.98e+02  -0.7 9.10e+03    -  1.69e-03 9.72e-04f  1
  19r 5.1349857e+01 1.73e-01 9.95e+02  -0.7 2.28e+03    -  2.09e-03 2.75e-03f  1
iter    objective    inf_pr   inf_du lg(mu)  ||d||  lg(rg) alpha_du alpha_pr  ls
  20r 5.1349960e+01 1.73e-01 9.93e+02  -0.7 3.04e+03    -  5.52e-02 2.67e-03f  1
  21r 5.1351055e+01 1.70e-01 9.48e+02  -0.7 4.59e+03    -  2.26e-01 4.65e-02f  1
  22r 5.1354753e+01 1.66e-01 7.88e+02  -0.7 2.93e+03    -  6.56e-01 1.68e-01f  1
  23r 5.1372734e+01 1.53e-01 5.00e+02  -0.7 1.80e+03    -  4.38e-01 7.24e-01f  1
  24  7.5695430e+01 1.51e-01 9.70e+04  -1.0 1.92e+07    -  7.93e-02 1.27e-02h  5
  25  1.0058938e+02 1.50e-01 1.16e+05  -1.0 3.80e+07    -  1.32e-01 6.59e-03h  5
  26  1.0630542e+02 1.50e-01 1.16e+05  -1.0 1.43e+08    -  1.51e-02 4.42e-04h  7
  27  1.0912523e+02 1.50e-01 1.16e+05  -1.0 3.14e+08    -  3.80e-02 1.01e-04h  8
  28r 1.0912523e+02 1.50e-01 9.99e+02  -0.8 0.00e+00    -  0.00e+00 3.50e-07R 15
  29r 1.0912559e+02 1.49e-01 9.88e+02  -0.8 2.37e+03    -  3.11e-01 1.16e-02f  1
iter    objective    inf_pr   inf_du lg(mu)  ||d||  lg(rg) alpha_du alpha_pr  ls
  30r 1.0913636e+02 1.42e-01 6.66e+02  -0.8 2.40e+03    -  4.92e-01 3.26e-01f  1
  31r 1.0916452e+02 1.28e-01 1.30e+02  -0.8 2.06e+03    -  7.64e-01 9.51e-01f  1
  32  1.1527976e+02 1.28e-01 5.43e+02  -1.0 2.27e+08    -  9.09e-03 2.88e-04h  7
  33r 1.1527976e+02 1.28e-01 9.99e+02  -0.9 0.00e+00    -  0.00e+00 3.07e-07R 15
  34r 1.1533040e+02 1.07e-01 1.23e+02  -0.9 2.75e+03    -  9.50e-01 8.77e-01f  1
  35  1.2772698e+02 1.07e-01 9.91e+03  -1.0 1.12e+08    -  1.90e-02 1.20e-03h  6
  36  1.0358339e+02 1.21e-01 4.28e+04  -1.0 7.03e+07    -  5.80e-02 4.01e-03f  4
  37  1.0581813e+02 1.21e-01 4.12e+04  -1.0 2.22e+07    -  5.68e-01 1.29e-03h  8
  38  1.0869563e+02 1.21e-01 3.78e+04  -1.0 4.58e+07    -  6.31e-02 7.38e-04h  8
  39  1.0865364e+02 1.21e-01 3.76e+04  -1.0 4.55e+06    -  6.55e-01 1.53e-04f 11
iter    objective    inf_pr   inf_du lg(mu)  ||d||  lg(rg) alpha_du alpha_pr  ls
  40  4.6249617e+01 2.71e+00 8.41e+06  -1.0 1.14e+08    -  3.63e-02 8.95e-03f  2
  41  4.7743826e+01 2.71e+00 8.41e+06  -1.0 3.33e+07    -  4.50e-02 4.81e-04h  9
  42  4.8318615e+01 2.67e+00 8.72e+06  -1.0 2.44e+06  -5.1 7.01e-01 1.51e-02h  5
  43  4.8521142e+01 2.67e+00 8.71e+06  -1.0 3.63e+06    -  3.38e-01 1.09e-03h  9
  44  7.4110086e+01 2.54e+00 9.67e+06  -1.0 5.51e+06    -  4.36e-01 4.87e-02h  4
  45  1.5648486e+02 3.56e+01 6.13e+07  -1.0 4.98e+06    -  3.58e-01 2.25e-01w  1
  46  2.1320618e+02 3.52e+01 5.16e+07  -1.0 6.66e+06    -  1.59e-01 2.80e-01w  1
  47  3.4245361e+02 4.34e+01 3.50e+07  -1.0 2.16e+06    -  1.59e-01 3.43e-01w  1
  48  7.5697201e+01 2.50e+00 9.79e+06  -1.0 1.14e+07    -  3.58e-01 1.40e-02h  4
  49  2.2257539e+01 3.39e+00 3.29e+08  -1.0 6.82e+06    -  3.75e-02 3.36e-02H  1
iter    objective    inf_pr   inf_du lg(mu)  ||d||  lg(rg) alpha_du alpha_pr  ls
  50  3.9175639e+01 3.32e+00 3.16e+08  -1.0 1.17e+07    -  1.20e-01 3.93e-02h  4
  51  4.3505386e+01 3.20e+00 3.02e+08  -1.0 2.52e+06  -5.6 7.78e-01 4.55e-02h  4
  52  4.7307594e+01 3.13e+00 2.95e+08  -1.0 3.15e+06  -6.1 6.45e-01 2.35e-02h  5
  53  4.7409130e+01 3.13e+00 2.95e+08  -1.0 6.77e+06  -6.5 1.45e-01 2.54e-04h 12
  54  4.7440358e+01 3.13e+00 2.95e+08  -1.0 2.20e+07  -7.0 1.66e-01 2.29e-05h 14
  55  1.2756544e+02 2.96e+00 2.57e+08  -1.0 6.82e+06  -6.6 4.47e-01 1.30e-01h  3
  56  2.1493619e+02 2.96e+00 2.63e+08  -1.0 7.43e+07  -6.2 3.76e-02 8.79e-03h  3
  57  1.2278589e+02 2.82e+00 2.27e+08  -1.0 8.51e+06    -  2.82e-01 8.54e-02f  3
  58  1.2577443e+02 2.81e+00 2.24e+08  -1.0 9.51e+06    -  3.90e-01 2.91e-03h  8
  59  1.4947924e+02 2.75e+00 2.16e+08  -1.0 1.04e+07    -  7.13e-01 1.98e-02h  5
iter    objective    inf_pr   inf_du lg(mu)  ||d||  lg(rg) alpha_du alpha_pr  ls
  60  1.7732973e+02 6.00e+00 1.69e+11  -1.0 9.91e+06    -  5.97e-02 2.03e-02w  1
  61  4.5625403e+02 3.21e+01 1.17e+12  -1.0 2.89e+06    -  4.08e-01 5.17e-01w  1
  62  1.1658457e+02 2.37e+01 1.10e+13  -1.0 1.76e+07    -  1.97e-01 2.60e-01w  1
  63  1.5617163e+02 2.76e+00 1.57e+10  -1.0 1.24e+06  -1.2 5.97e-02 5.07e-03h  2
  64  1.4344706e+02 2.55e+00 1.20e+10  -1.0 1.17e+06    -  1.57e-01 1.35e-01f  3
  65  1.4463234e+02 2.43e+00 5.90e+10  -1.0 8.14e+05    -  7.38e-01 4.23e-02h  4
  66  9.5116949e+01 2.61e+00 7.88e+13  -1.0 1.01e+06    -  6.27e-04 2.30e-03F  1
  67  2.1735033e+01 2.60e+00 8.29e+13  -1.0 1.08e+09    -  5.70e-04 1.16e-03f  2
  68  1.7447521e+01 4.68e+00 8.10e+13  -1.0 3.18e+08    -  1.13e-02 1.99e-03f  2
  69  1.7952483e+01 4.67e+00 8.10e+13  -1.0 1.06e+08    -  3.08e-02 3.74e-04h  5
iter    objective    inf_pr   inf_du lg(mu)  ||d||  lg(rg) alpha_du alpha_pr  ls
  70  1.8588441e+01 4.67e+00 8.09e+13  -1.0 9.77e+07    -  6.99e-02 3.83e-04h  5
  71  1.9312802e+01 4.67e+00 8.09e+13  -1.0 9.12e+07    -  5.92e-02 3.80e-04h  5
  72  2.0073737e+01 4.67e+00 8.08e+13  -1.0 8.59e+07    -  7.79e-02 3.65e-04h  5
  73  2.0846963e+01 4.67e+00 8.08e+13  -1.0 8.12e+07    -  5.68e-02 3.50e-04h  5
  74  2.1615242e+01 4.67e+00 8.08e+13  -1.0 7.70e+07    -  9.18e-02 3.34e-04h  5
  75  2.2366619e+01 4.66e+00 8.07e+13  -1.0 7.33e+07    -  5.54e-02 3.18e-04h  5
  76  2.3093035e+01 4.66e+00 8.07e+13  -1.0 6.99e+07    -  7.17e-02 3.02e-04h  5
  77  3.9507406e+01 2.24e+01 7.89e+13  -1.0 6.69e+07    -  7.28e-02 4.59e-03w  1
  78  3.9481199e+01 2.24e+01 7.89e+13  -1.0 6.45e+06    -  6.01e-02 5.47e-05w  1
  79  3.9146366e+01 2.24e+01 7.88e+13  -1.0 5.86e+06    -  6.43e-02 7.64e-04w  1
iter    objective    inf_pr   inf_du lg(mu)  ||d||  lg(rg) alpha_du alpha_pr  ls
  80  2.3789217e+01 4.66e+00 8.07e+13  -1.0 5.25e+06    -  7.28e-02 2.87e-04h  4
  81  2.4451542e+01 4.66e+00 8.06e+13  -1.0 6.42e+07    -  6.01e-02 2.71e-04h  5
  82  2.4757609e+01 4.66e+00 8.06e+13  -1.0 6.19e+07    -  9.89e-02 1.27e-04h  6
  83  2.5028690e+01 4.66e+00 8.06e+13  -1.0 6.13e+07    -  5.17e-02 1.12e-04h  6
  84  2.5039849e+01 4.66e+00 8.06e+13  -1.0 1.14e+07   2.8 4.07e-04 3.59e-05h 11
  85  2.5053410e+01 4.66e+00 8.08e+13  -1.0 4.21e+06   3.2 3.78e-04 1.95e-04f 10
  86  2.5060032e+01 4.66e+00 8.12e+13  -1.0 9.60e+06   2.8 6.22e-04 3.42e-04f  8
  87  2.5079514e+01 4.66e+00 8.12e+13  -1.0 5.70e+07    -  6.88e-02 2.28e-04h  6
  88  2.5127868e+01 4.65e+00 8.11e+13  -1.0 5.90e+07    -  6.35e-02 3.59e-04h  5
  89  2.5271637e+01 4.65e+00 8.09e+13  -1.0 5.61e+07    -  6.36e-02 6.72e-04h  4
iter    objective    inf_pr   inf_du lg(mu)  ||d||  lg(rg) alpha_du alpha_pr  ls
  90  2.8412178e+01 1.98e+01 7.53e+13  -1.0 5.09e+07    -  6.42e-02 4.84e-03w  1
  91  2.8363176e+01 1.98e+01 7.53e+13  -1.0 5.47e+06    -  6.28e-02 9.87e-05w  1
  92  2.7712106e+01 1.97e+01 7.52e+13  -1.0 5.05e+06    -  6.73e-02 1.45e-03w  1
  93  2.5431588e+01 4.65e+00 8.08e+13  -1.0 4.96e+06    -  6.42e-02 6.05e-04h  3
  94  2.5503755e+01 4.65e+00 8.08e+13  -1.0 4.66e+07    -  6.47e-02 2.68e-04h  5
  95  2.5522765e+01 4.65e+00 8.08e+13  -1.0 4.94e+07    -  6.27e-02 6.64e-05h  6
  96r 2.5522765e+01 4.65e+00 1.00e+03   0.7 0.00e+00   3.2 0.00e+00 4.20e-07R 16
  97r 2.5521294e+01 2.58e+00 9.98e+02   0.7 1.63e+04    -  2.34e-03 3.62e-03f  1
  98  2.5525014e+01 1.77e+00 1.31e+06  -1.0 5.84e+05    -  5.44e-04 2.42e-02f  3
  99  1.6363530e+01 1.69e+00 8.84e+06  -1.0 2.18e+06    -  1.51e-01 3.21e-01f  2
iter    objective    inf_pr   inf_du lg(mu)  ||d||  lg(rg) alpha_du alpha_pr  ls
 100  2.9033963e+02 8.87e-01 6.54e+07  -1.0 2.15e+06    -  3.34e-01 9.90e-01h  1
 101  3.2381608e+03 5.79e-01 7.00e+07  -1.0 6.34e+06    -  3.33e-01 9.90e-01h  1
 102  7.2923454e+03 3.13e-01 1.09e+07  -1.0 6.99e+06    -  4.61e-01 5.56e-01h  1
 103  7.3121209e+03 3.12e-01 4.05e+07  -1.0 6.25e+06    -  6.92e-01 3.27e-03h  1
 104  7.3117519e+03 3.12e-01 7.53e+07  -1.0 7.48e+06    -  8.08e-01 6.90e-04h  1
 105  8.9766690e+03 4.09e-01 1.80e+07  -1.0 7.96e+06    -  9.89e-01 9.90e-01h  1
 106  9.6958718e+03 1.13e-01 1.47e+09  -1.0 7.54e+05    -  6.51e-01 9.90e-01h  1
 107  9.7552615e+03 2.05e-02 2.51e+11  -1.0 4.48e+05    -  4.08e-01 9.90e-01h  1
 108  9.7669005e+03 1.25e-03 4.13e+13  -1.0 1.19e+05    -  3.55e-02 9.90e-01h  1
In iteration 108, 32 Slacks too small, adjusting variable bounds
 109  8.0586332e+03 2.45e-03 4.27e+15  -1.0 1.63e+06    -  1.09e-03 9.90e-01f  1
iter    objective    inf_pr   inf_du lg(mu)  ||d||  lg(rg) alpha_du alpha_pr  ls
 110  8.0595448e+03 3.44e-05 3.74e+12  -1.0 2.13e+04   2.7 9.87e-01 1.00e+00h  1
 111  8.0573204e+03 2.89e-09 6.66e+10  -1.0 2.25e+03    -  9.90e-01 1.00e+00f  1
 112  8.0573204e+03 1.46e-12 9.08e+02  -1.0 2.23e-02   2.2 1.00e+00 1.00e+00h  1
 113  8.0352000e+03 3.52e-07 2.19e+10  -8.6 2.20e+04    -  9.87e-01 1.00e+00f  1
 114  8.0352001e+03 3.60e-12 7.95e+03  -8.6 2.80e+00   1.8 1.00e+00 1.00e+00h  1
 115  8.0346859e+03 1.90e-10 1.54e+05  -8.6 5.13e+02    -  1.00e+00 1.00e+00f  1
 116  8.0346859e+03 4.29e-12 2.88e-02  -8.6 1.51e-03   1.3 1.00e+00 1.00e+00h  1
 117  5.7905600e+03 4.74e-03 1.34e+05  -8.6 2.42e+06    -  7.15e-01 1.00e+00f  1
 118  5.7921507e+03 5.61e-05 9.56e+10  -8.6 2.58e+04   0.8 1.00e+00 1.00e+00h  1
 119  5.7866108e+03 1.99e-08 1.36e+09  -8.6 6.59e+03    -  1.00e+00 1.00e+00f  1
iter    objective    inf_pr   inf_du lg(mu)  ||d||  lg(rg) alpha_du alpha_pr  ls
 120  5.7866108e+03 7.65e-12 1.13e+02  -8.6 3.05e-02   0.3 1.00e+00 1.00e+00h  1
 121  4.1598185e+03 2.59e-03 2.07e+05  -8.6 2.08e+06    -  1.00e+00 1.00e+00f  1
 122  4.1604311e+03 7.50e-06 1.81e+09  -8.6 9.19e+03  -0.1 1.00e+00 1.00e+00h  1
 123  4.1589879e+03 1.51e-09 1.06e+07  -8.6 2.02e+03    -  1.00e+00 1.00e+00f  1
 124  4.1589879e+03 1.62e-12 4.18e-02  -8.6 2.98e-03  -0.6 1.00e+00 1.00e+00h  1
 125  4.3334506e+01 1.14e+00 3.94e+03  -8.6 1.16e+07    -  6.07e-01 1.00e+00f  1
 126  3.1162225e+01 5.04e-02 2.46e+11  -8.6 2.45e+05  -1.1 1.00e+00 1.00e+00f  1
 127  4.0095530e+01 9.01e-02 9.51e+10  -8.6 2.14e+05    -  1.00e+00 1.00e+00h  1
 128  3.9481692e+01 3.06e-03 6.18e+09  -8.6 1.08e+05    -  1.00e+00 1.00e+00f  1
 129  3.9519207e+01 2.07e-06 1.62e+06  -8.6 7.30e+02  -1.6 1.00e+00 1.00e+00h  1
iter    objective    inf_pr   inf_du lg(mu)  ||d||  lg(rg) alpha_du alpha_pr  ls
 130  3.9519141e+01 3.69e-11 1.09e+03  -8.6 8.82e+00    -  1.00e+00 1.00e+00h  1
 131  3.8040915e+01 1.23e-02 8.40e+00  -8.6 1.62e+05    -  1.00e+00 1.00e+00f  1
 132  3.8008119e+01 1.22e-03 2.02e-01  -8.6 5.00e+04    -  1.00e+00 1.00e+00h  1
 133  3.8019642e+01 4.11e-06 3.40e-04  -8.6 2.08e+03    -  1.00e+00 1.00e+00h  1
 134  3.8019651e+01 7.57e-11 1.44e-09  -8.6 4.78e+00    -  1.00e+00 1.00e+00h  1

Number of Iterations....: 134

                                   (scaled)                 (unscaled)
Objective...............:   3.8019651235481987e+01    3.8019651235481987e+01
Dual infeasibility......:   1.4351826393976808e-09    1.4351826393976808e-09
Constraint violation....:   7.5718098457855376e-11    7.5718098457855376e-11
Complementarity.........:   2.5059035596800626e-09    2.5059035596800626e-09
Overall NLP error.......:   1.6780669320068147e-10    2.5059035596800626e-09


Number of objective function evaluations             = 652
Number of objective gradient evaluations             = 128
Number of equality constraint evaluations            = 652
Number of inequality constraint evaluations          = 0
Number of equality constraint Jacobian evaluations   = 139
Number of inequality constraint Jacobian evaluations = 0
Number of Lagrangian Hessian evaluations             = 134
Total CPU secs in IPOPT (w/o function evaluations)   =      0.139
Total CPU secs in NLP function evaluations           =      4.274

EXIT: Optimal Solution Found.
